48
500
400	1
393	1
392	1
388	1
384	2
382	1
377	1
376	1
367	1
362	1
356	1
343	1
340	1
321	1
320	1
314	1
307	1
303	1
297	1
296	1
295	1
293	1
289	1
287	1
283	1
268	1
257	1
254	1
249	1
243	1
233	1
230	1
228	1
226	1
222	1
219	1
205	2
196	1
193	1
188	1
185	1
183	1
172	1
151	1
148	1
133	1
112	1
104	1
